language ESSENCE' 1.0
$ Minion SolverNodes: 1430
$ Minion SolverTotalTime: 0.07329
$ Minion SolverTimeOut: 0
$ Savile Row TotalTime: 0.674
letting M be [[44, 29, 31, 5, 15, 27, 41, 28, 8], 
[44, 29, 31, 5, 15, 27, 28, 8, -1], 
[44, 29, 31, 5, 15, 28, 8, -1, -1], 
[44, 29, 31, 5, 28, 8, -1, -1, -1], 
[44, 28, 31, 5, 8, -1, -1, -1, -1], 
[44, 31, 5, 8, -1, -1, -1, -1, -1], 
[31, 5, 8, -1, -1, -1, -1, -1, -1], 
[5, 8, -1, -1, -1, -1, -1, -1, -1], 
[8, -1, -1, -1, -1, -1, -1, -1, -1]]
